(set-logic ALL)
(set-option :produce-models true)
(declare-sort BoundSet 0)
(declare-sort UnboundSet 0)
(declare-fun IsJumping (BoundSet) Bool)
(declare-fun IsColliding (BoundSet) Bool)
(declare-fun IsWatching (BoundSet) Bool)
(declare-fun ( (Bool) Bool)
(assert (not (=> (exists ((a BoundSet)) (and (IsJumping a) (IsColliding a))) (exists ((c BoundSet)) (exists ((a BoundSet)) (( (and (IsJumping a) (IsWatching c))))))))
(check-sat)
(get-model)